18624989906391697595013,2,1,2,015,15,1,2,09,12,1,2,013,11,1,2,05,1,1,2,04,14,1,2,013,8,1,2,06,12,1,2,03,1,1,2,07,12,1,2,06,15,1,2,011,2,1,2,05,14,1,2,014,3,1,2,05,4,1,2,03,7,1,2,05,14,1,2,010,11,1,2,02,6,1,2,07,14,1,2,012,12,1,2,015,1,1,2,011,10,1,2,07,3,1,2,014,10,1,2,07,3,1,2,05,14,1,2,012,6,1,2,02,12,1,2,014,11,1,2,013,1,1,2,013,4,1,2,015,1,1,2,015,11,1,2,010,9,1,2,09,1,1,2,01,5,1,2,011,14,1,2,07,1,1,2,010,9,1,2,011,8,1,2,01,14,1,2,01,15,1,2,011,14,1,2,01,10,1,2,014,8,1,2,06,7,1,2,03,3,1,2,012,7,1,2,014,5,1,2,0